p tw 63 72
1 2
2 13
3 59
4 5
5 6
6 7
7 8
7 9
8 59
9 10
10 11
11 12
12 14
13 24
14 15
15 16
15 20
16 17
17 18
18 19
18 20
19 59
20 21
21 22
22 23
23 25
24 35
25 26
26 27
27 28
28 29
29 30
30 31
31 32
31 34
32 33
33 34
33 38
34 36
35 46
36 37
37 38
37 43
38 39
39 40
40 41
41 42
41 43
42 59
43 44
44 45
45 47
46 57
47 48
47 52
48 49
49 50
50 51
51 55
52 53
53 54
54 55
55 56
56 58
57 61
57 4
58 59
59 60
61 62
62 63
63 3
63 4
